NAME: random-74-928
TYPE: TSP
COMMENT: size=74 seed=928
DIMENSION: 150
EDGE_WEIGHT_TYPE: EUC_2D
NODE_COORD_SECTION
+0 896 138
-0 896 138
+1 422 75
-1 11 821
+2 934 3
-2 635 266
+3 739 272
-3 233 107
+4 22 983
-4 835 822
+5 795 693
-5 690 335
+6 785 88
-6 877 902
+7 506 330
-7 948 99
+8 915 308
-8 779 736
+9 723 725
-9 719 555
+10 213 199
-10 214 555
+11 292 11
-11 442 261
+12 341 908
-12 911 363
+13 684 47
-13 453 82
+14 275 937
-14 419 752
+15 183 252
-15 559 760
+16 323 258
-16 494 276
+17 871 828
-17 336 36
+18 1 408
-18 43 535
+19 633 646
-19 618 874
+20 824 180
-20 654 142
+21 941 112
-21 539 481
+22 759 416
-22 712 396
+23 365 524
-23 300 353
+24 294 76
-24 361 537
+25 722 618
-25 186 629
+26 262 314
-26 888 6
+27 567 998
-27 910 350
+28 802 978
-28 667 237
+29 20 813
-29 343 49
+30 932 558
-30 938 976
+31 32 578
-31 974 206
+32 519 518
-32 695 285
+33 163 752
-33 150 615
+34 399 744
-34 720 880
+35 611 926
-35 12 257
+36 584 907
-36 163 84
+37 129 477
-37 806 467
+38 108 337
-38 800 743
+39 493 492
-39 168 913
+40 981 594
-40 897 924
+41 42 340
-41 595 475
+42 935 692
-42 441 445
+43 869 814
-43 177 187
+44 2 677
-44 422 782
+45 652 283
-45 166 184
+46 428 527
-46 678 859
+47 40 454
-47 893 861
+48 701 694
-48 453 636
+49 322 419
-49 783 101
+50 999 563
-50 452 893
+51 693 924
-51 442 5
+52 367 968
-52 39 605
+53 624 861
-53 854 200
+54 103 71
-54 72 1
+55 46 415
-55 797 308
+56 462 301
-56 579 264
+57 273 378
-57 675 905
+58 144 689
-58 841 246
+59 296 709
-59 180 13
+60 794 264
-60 289 612
+61 978 44
-61 559 350
+62 577 731
-62 232 64
+63 925 138
-63 616 483
+64 833 111
-64 838 920
+65 753 657
-65 63 515
+66 36 96
-66 6 174
+67 411 840
-67 875 487
+68 33 465
-68 18 855
+69 504 943
-69 776 333
+70 268 866
-70 946 552
+71 490 848
-71 622 577
+72 405 564
-72 56 250
+73 532 238
-73 64 478
+74 3 733
-74 725 489
PRECEDENCE_SECTION
+0 -0
+1 -1
+2 -2
+3 -3
+4 -4
+5 -5
+6 -6
+7 -7
+8 -8
+9 -9
+10 -10
+11 -11
+12 -12
+13 -13
+14 -14
+15 -15
+16 -16
+17 -17
+18 -18
+19 -19
+20 -20
+21 -21
+22 -22
+23 -23
+24 -24
+25 -25
+26 -26
+27 -27
+28 -28
+29 -29
+30 -30
+31 -31
+32 -32
+33 -33
+34 -34
+35 -35
+36 -36
+37 -37
+38 -38
+39 -39
+40 -40
+41 -41
+42 -42
+43 -43
+44 -44
+45 -45
+46 -46
+47 -47
+48 -48
+49 -49
+50 -50
+51 -51
+52 -52
+53 -53
+54 -54
+55 -55
+56 -56
+57 -57
+58 -58
+59 -59
+60 -60
+61 -61
+62 -62
+63 -63
+64 -64
+65 -65
+66 -66
+67 -67
+68 -68
+69 -69
+70 -70
+71 -71
+72 -72
+73 -73
+74 -74
EOF
